c WMC file for PBN ISCAS/c880_distill_ISCAS/c880_miter written by probABC
p cnf 285 663
65 -11 -40 0
-65 11 0
-65 40 0
66 -4 -8 0
-66 4 0
-66 8 0
67 -1 -5 0
-67 1 0
-67 5 0
68 -9 -67 0
-68 9 0
-68 67 0
69 4 8 0
-69 -4 0
-69 -8 0
70 -65 66 0
-70 65 0
-70 -66 0
71 69 -70 0
-71 -69 0
-71 70 0
72 -68 -71 0
-72 68 0
-72 71 0
73 -1 -2 0
-73 1 0
-73 2 0
74 -8 -11 0
-74 8 0
-74 11 0
75 -16 -74 0
-75 16 0
-75 74 0
76 -4 -9 0
-76 4 0
-76 9 0
77 -73 -76 0
-77 73 0
-77 76 0
78 75 -77 0
-78 -75 0
-78 77 0
79 72 78 0
-79 -72 0
-79 -78 0
80 -25 79 0
-80 25 0
-80 -79 0
81 -9 -34 0
-81 9 0
-81 34 0
82 65 -68 0
-82 -65 0
-82 68 0
83 -10 -82 0
-83 10 0
-83 82 0
84 -36 -83 0
-84 36 0
-84 83 0
85 -6 -16 0
-85 6 0
-85 16 0
86 -17 -85 0
-86 17 0
-86 85 0
87 -68 -86 0
-87 68 0
-87 86 0
88 -4 60 0
-88 4 0
-88 -60 0
89 -87 -88 0
-89 87 0
-89 88 0
90 81 89 0
-90 -81 0
-90 -89 0
91 84 -90 0
-91 -84 0
-91 90 0
92 80 -91 0
-92 -80 0
-92 91 0
93 42 -92 0
-93 -42 0
-93 92 0
94 -42 92 0
-94 42 0
-94 -92 0
95 93 94 0
-95 -93 0
-95 -94 0
96 -26 79 0
-96 26 0
-96 -79 0
97 -4 -34 0
-97 4 0
-97 34 0
98 -37 -83 0
-98 37 0
-98 83 0
99 89 97 0
-99 -89 0
-99 -97 0
100 98 -99 0
-100 -98 0
-100 99 0
101 96 -100 0
-101 -96 0
-101 100 0
102 43 -101 0
-102 -43 0
-102 101 0
103 -27 79 0
-103 27 0
-103 -79 0
104 -34 -38 0
-104 34 0
-104 38 0
105 -39 -83 0
-105 39 0
-105 83 0
106 89 104 0
-106 -89 0
-106 -104 0
107 105 -106 0
-107 -105 0
-107 106 0
108 103 -107 0
-108 -103 0
-108 107 0
109 44 -108 0
-109 -44 0
-109 108 0
110 -4 -82 0
-110 4 0
-110 82 0
111 -1 110 0
-111 1 0
-111 -110 0
112 -35 111 0
-112 35 0
-112 -111 0
113 -28 79 0
-113 28 0
-113 -79 0
114 -10 60 0
-114 10 0
-114 -60 0
115 -87 -114 0
-115 87 0
-115 114 0
116 112 115 0
-116 -112 0
-116 -115 0
117 113 -116 0
-117 -113 0
-117 116 0
118 -45 117 0
-118 45 0
-118 -117 0
119 45 -117 0
-119 -45 0
-119 117 0
120 -31 79 0
-120 31 0
-120 -79 0
121 -39 111 0
-121 39 0
-121 -111 0
122 115 120 0
-122 -115 0
-122 -120 0
123 121 -122 0
-123 -121 0
-123 122 0
124 -48 123 0
-124 48 0
-124 -123 0
125 58 124 0
-125 -58 0
-125 -124 0
126 -29 79 0
-126 29 0
-126 -79 0
127 -36 111 0
-127 36 0
-127 -111 0
128 115 126 0
-128 -115 0
-128 -126 0
129 127 -128 0
-129 -127 0
-129 128 0
130 46 -129 0
-130 -46 0
-130 129 0
131 -37 111 0
-131 37 0
-131 -111 0
132 -30 79 0
-132 30 0
-132 -79 0
133 115 131 0
-133 -115 0
-133 -131 0
134 132 -133 0
-134 -132 0
-134 133 0
135 47 -134 0
-135 -47 0
-135 134 0
136 48 -123 0
-136 -48 0
-136 123 0
137 130 135 0
-137 -130 0
-137 -135 0
138 136 -137 0
-138 -136 0
-138 137 0
139 125 -138 0
-139 -125 0
-139 138 0
140 -46 129 0
-140 46 0
-140 -129 0
141 -47 134 0
-141 47 0
-141 -134 0
142 130 -141 0
-142 -130 0
-142 141 0
143 140 142 0
-143 -140 0
-143 -142 0
144 139 -143 0
-144 -139 0
-144 143 0
145 119 144 0
-145 -119 0
-145 -144 0
146 -62 145 0
-146 62 0
-146 -145 0
147 62 -145 0
-147 -62 0
-147 145 0
148 118 146 0
-148 -118 0
-148 -146 0
149 147 -148 0
-149 -147 0
-149 148 0
150 102 109 0
-150 -102 0
-150 -109 0
151 149 -150 0
-151 -149 0
-151 150 0
152 -43 101 0
-152 43 0
-152 -101 0
153 -44 108 0
-153 44 0
-153 -108 0
154 152 153 0
-154 -152 0
-154 -153 0
155 102 154 0
-155 -102 0
-155 -154 0
156 151 155 0
-156 -151 0
-156 -155 0
157 -95 156 0
-157 95 0
-157 -156 0
158 95 -156 0
-158 -95 0
-158 156 0
159 -51 157 0
-159 51 0
-159 -157 0
160 158 -159 0
-160 -158 0
-160 159 0
161 -3 -10 0
-161 3 0
-161 10 0
162 -12 -13 0
-162 12 0
-162 13 0
163 -14 -162 0
-163 14 0
-163 162 0
164 -73 -161 0
-164 73 0
-164 161 0
165 -74 -164 0
-165 74 0
-165 164 0
166 -163 -165 0
-166 163 0
-166 165 0
167 -42 -166 0
-167 42 0
-167 166 0
168 63 -167 0
-168 -63 0
-168 167 0
169 -52 -95 0
-169 52 0
-169 95 0
170 -53 -94 0
-170 53 0
-170 94 0
171 169 170 0
-171 -169 0
-171 -170 0
172 -24 -50 0
-172 24 0
-172 50 0
173 -63 167 0
-173 63 0
-173 -167 0
174 -54 92 0
-174 54 0
-174 -92 0
175 168 172 0
-175 -168 0
-175 -172 0
176 173 -175 0
-176 -173 0
-176 175 0
177 174 -176 0
-177 -174 0
-177 176 0
178 -171 -177 0
-178 171 0
-178 177 0
179 160 -178 0
-179 -160 0
-179 178 0
180 118 145 0
-180 -118 0
-180 -145 0
181 109 180 0
-181 -109 0
-181 -180 0
182 102 -181 0
-182 -102 0
-182 181 0
183 155 182 0
-183 -155 0
-183 -182 0
184 -95 183 0
-184 95 0
-184 -183 0
185 95 -183 0
-185 -95 0
-185 183 0
186 -51 184 0
-186 51 0
-186 -184 0
187 185 -186 0
-187 -185 0
-187 186 0
188 167 172 0
-188 -167 0
-188 -172 0
189 174 -188 0
-189 -174 0
-189 188 0
190 -171 -189 0
-190 171 0
-190 189 0
191 187 -190 0
-191 -187 0
-191 190 0
192 179 191 0
-192 -179 0
-192 -191 0
193 -179 -191 0
-193 179 0
-193 191 0
194 192 193 0
-194 -192 0
-194 -193 0
195 -24 79 0
-195 24 0
-195 -79 0
196 -2 -34 0
-196 2 0
-196 34 0
197 -35 -83 0
-197 35 0
-197 83 0
198 89 196 0
-198 -89 0
-198 -196 0
199 197 -198 0
-199 -197 0
-199 198 0
200 195 -199 0
-200 -195 0
-200 199 0
201 -53 200 0
-201 53 0
-201 -200 0
202 166 201 0
-202 -166 0
-202 -201 0
203 -41 202 0
-203 41 0
-203 -202 0
204 93 -155 0
-204 -93 0
-204 155 0
205 94 204 0
-205 -94 0
-205 -204 0
206 93 -182 0
-206 -93 0
-206 182 0
207 -205 206 0
-207 205 0
-207 -206 0
208 93 -151 0
-208 -93 0
-208 151 0
209 -207 -208 0
-209 207 0
-209 208 0
210 -205 208 0
-210 205 0
-210 -208 0
211 207 -210 0
-211 -207 0
-211 210 0
212 209 211 0
-212 -209 0
-212 -211 0
213 -54 200 0
-213 54 0
-213 -200 0
214 -41 200 0
-214 41 0
-214 -200 0
215 41 -200 0
-215 -41 0
-215 200 0
216 214 215 0
-216 -214 0
-216 -215 0
217 -52 -216 0
-217 52 0
-217 216 0
218 -50 -60 0
-218 50 0
-218 60 0
219 -51 218 0
-219 51 0
-219 -218 0
220 213 -219 0
-220 -213 0
-220 219 0
221 203 -220 0
-221 -203 0
-221 220 0
222 217 -221 0
-222 -217 0
-222 221 0
223 212 -222 0
-223 -212 0
-223 222 0
224 -206 -210 0
-224 206 0
-224 210 0
225 209 224 0
-225 -209 0
-225 -224 0
226 -216 225 0
-226 216 0
-226 -225 0
227 -44 -53 0
-227 44 0
-227 53 0
228 54 227 0
-228 -54 0
-228 -227 0
229 108 228 0
-229 -108 0
-229 -228 0
230 -26 -50 0
-230 26 0
-230 50 0
231 -44 -166 0
-231 44 0
-231 166 0
232 -52 109 0
-232 52 0
-232 -109 0
233 153 -232 0
-233 -153 0
-233 232 0
234 -51 -62 0
-234 51 0
-234 62 0
235 230 -234 0
-235 -230 0
-235 234 0
236 231 -235 0
-236 -231 0
-236 235 0
237 229 -236 0
-237 -229 0
-237 236 0
238 118 -237 0
-238 -118 0
-238 237 0
239 233 -238 0
-239 -233 0
-239 238 0
240 -54 123 0
-240 54 0
-240 -123 0
241 -30 -50 0
-241 30 0
-241 50 0
242 -55 -59 0
-242 55 0
-242 59 0
243 -48 -166 0
-243 48 0
-243 166 0
244 124 136 0
-244 -124 0
-244 -136 0
245 58 244 0
-245 -58 0
-245 -244 0
246 -58 -244 0
-246 58 0
-246 244 0
247 -51 245 0
-247 51 0
-247 -245 0
248 246 -247 0
-248 -246 0
-248 247 0
249 -61 241 0
-249 61 0
-249 -241 0
250 242 -249 0
-250 -242 0
-250 249 0
251 243 -250 0
-251 -243 0
-251 250 0
252 240 -251 0
-252 -240 0
-252 251 0
253 248 -252 0
-253 -248 0
-253 252 0
254 -43 -166 0
-254 43 0
-254 166 0
255 -43 -53 0
-255 43 0
-255 53 0
256 54 255 0
-256 -54 0
-256 -255 0
257 101 256 0
-257 -101 0
-257 -256 0
258 -25 -50 0
-258 25 0
-258 50 0
259 102 152 0
-259 -102 0
-259 -152 0
260 -52 -259 0
-260 52 0
-260 259 0
261 254 258 0
-261 -254 0
-261 -258 0
262 257 -261 0
-262 -257 0
-262 261 0
263 260 -262 0
-263 -260 0
-263 262 0
264 109 149 0
-264 -109 0
-264 -149 0
265 153 264 0
-265 -153 0
-265 -264 0
266 -259 265 0
-266 259 0
-266 -265 0
267 259 -265 0
-267 -259 0
-267 265 0
268 -51 266 0
-268 51 0
-268 -266 0
269 267 -268 0
-269 -267 0
-269 268 0
270 -263 269 0
-270 263 0
-270 -269 0
271 153 181 0
-271 -153 0
-271 -181 0
272 -259 271 0
-272 259 0
-272 -271 0
273 259 -271 0
-273 -259 0
-273 271 0
274 -51 272 0
-274 51 0
-274 -272 0
275 273 -274 0
-275 -273 0
-275 274 0
276 -263 275 0
-276 263 0
-276 -275 0
277 270 276 0
-277 -270 0
-277 -276 0
278 -270 -276 0
-278 270 0
-278 276 0
279 277 278 0
-279 -277 0
-279 -278 0
280 239 253 0
-280 -239 0
-280 -253 0
281 223 -280 0
-281 -223 0
-281 280 0
282 226 -281 0
-282 -226 0
-282 281 0
283 194 -282 0
-283 -194 0
-283 282 0
284 279 -283 0
-284 -279 0
-284 283 0
64 284 0
-64 -284 0
64 0
w 1 0.500000
w 2 0.500000
w 3 0.500000
w 4 0.500000
w 5 0.500000
w 6 0.500000
w 7 0.500000
w 8 0.500000
w 9 0.500000
w 10 0.500000
w 11 0.500000
w 12 0.500000
w 13 0.500000
w 14 0.500000
w 15 0.500000
w 16 0.500000
w 17 0.500000
w 18 0.500000
w 19 0.500000
w 20 0.500000
w 21 0.500000
w 22 0.500000
w 23 0.500000
w 24 0.500000
w 25 0.500000
w 26 0.500000
w 27 0.500000
w 28 0.500000
w 29 0.500000
w 30 0.500000
w 31 0.500000
w 32 0.500000
w 33 0.500000
w 34 0.500000
w 35 0.500000
w 36 0.500000
w 37 0.500000
w 38 0.500000
w 39 0.500000
w 40 0.500000
w 41 0.500000
w 42 0.500000
w 43 0.500000
w 44 0.500000
w 45 0.500000
w 46 0.500000
w 47 0.500000
w 48 0.500000
w 49 0.500000
w 50 0.500000
w 51 0.500000
w 52 0.500000
w 53 0.500000
w 54 0.500000
w 55 0.500000
w 56 0.500000
w 57 0.500000
w 58 0.500000
w 59 0.500000
w 60 0.500000
w 61 0.125000
w 62 0.125000
w 63 0.125000
w 65 -1
w 66 -1
w 67 -1
w 68 -1
w 69 -1
w 70 -1
w 71 -1
w 72 -1
w 73 -1
w 74 -1
w 75 -1
w 76 -1
w 77 -1
w 78 -1
w 79 -1
w 80 -1
w 81 -1
w 82 -1
w 83 -1
w 84 -1
w 85 -1
w 86 -1
w 87 -1
w 88 -1
w 89 -1
w 90 -1
w 91 -1
w 92 -1
w 93 -1
w 94 -1
w 95 -1
w 96 -1
w 97 -1
w 98 -1
w 99 -1
w 100 -1
w 101 -1
w 102 -1
w 103 -1
w 104 -1
w 105 -1
w 106 -1
w 107 -1
w 108 -1
w 109 -1
w 110 -1
w 111 -1
w 112 -1
w 113 -1
w 114 -1
w 115 -1
w 116 -1
w 117 -1
w 118 -1
w 119 -1
w 120 -1
w 121 -1
w 122 -1
w 123 -1
w 124 -1
w 125 -1
w 126 -1
w 127 -1
w 128 -1
w 129 -1
w 130 -1
w 131 -1
w 132 -1
w 133 -1
w 134 -1
w 135 -1
w 136 -1
w 137 -1
w 138 -1
w 139 -1
w 140 -1
w 141 -1
w 142 -1
w 143 -1
w 144 -1
w 145 -1
w 146 -1
w 147 -1
w 148 -1
w 149 -1
w 150 -1
w 151 -1
w 152 -1
w 153 -1
w 154 -1
w 155 -1
w 156 -1
w 157 -1
w 158 -1
w 159 -1
w 160 -1
w 161 -1
w 162 -1
w 163 -1
w 164 -1
w 165 -1
w 166 -1
w 167 -1
w 168 -1
w 169 -1
w 170 -1
w 171 -1
w 172 -1
w 173 -1
w 174 -1
w 175 -1
w 176 -1
w 177 -1
w 178 -1
w 179 -1
w 180 -1
w 181 -1
w 182 -1
w 183 -1
w 184 -1
w 185 -1
w 186 -1
w 187 -1
w 188 -1
w 189 -1
w 190 -1
w 191 -1
w 192 -1
w 193 -1
w 194 -1
w 195 -1
w 196 -1
w 197 -1
w 198 -1
w 199 -1
w 200 -1
w 201 -1
w 202 -1
w 203 -1
w 204 -1
w 205 -1
w 206 -1
w 207 -1
w 208 -1
w 209 -1
w 210 -1
w 211 -1
w 212 -1
w 213 -1
w 214 -1
w 215 -1
w 216 -1
w 217 -1
w 218 -1
w 219 -1
w 220 -1
w 221 -1
w 222 -1
w 223 -1
w 224 -1
w 225 -1
w 226 -1
w 227 -1
w 228 -1
w 229 -1
w 230 -1
w 231 -1
w 232 -1
w 233 -1
w 234 -1
w 235 -1
w 236 -1
w 237 -1
w 238 -1
w 239 -1
w 240 -1
w 241 -1
w 242 -1
w 243 -1
w 244 -1
w 245 -1
w 246 -1
w 247 -1
w 248 -1
w 249 -1
w 250 -1
w 251 -1
w 252 -1
w 253 -1
w 254 -1
w 255 -1
w 256 -1
w 257 -1
w 258 -1
w 259 -1
w 260 -1
w 261 -1
w 262 -1
w 263 -1
w 264 -1
w 265 -1
w 266 -1
w 267 -1
w 268 -1
w 269 -1
w 270 -1
w 271 -1
w 272 -1
w 273 -1
w 274 -1
w 275 -1
w 276 -1
w 277 -1
w 278 -1
w 279 -1
w 280 -1
w 281 -1
w 282 -1
w 283 -1
w 284 -1
w 64 -1
